(declare-const phi_v Int)
(declare-const v Int)
(declare-const havoc Int)
(declare-const |v'| Int)
(declare-const term_to_project_onto_integralized Int)
(declare-const tmp Int)
(declare-const term_to_project_onto0_integralized Int)
(declare-const |tmp'| Int)
(assert (and (<= (- v) 0) (= havoc 0) (<= (- v) 0) (<= (+ v -1) 0)
               (or (and (or (<= (+ v 1) 0) (<= (+ (- v) 1) 0))
                          (= (+ (- phi_v) v) 0))
                     (and (= v 0) (= (+ (- phi_v) 1) 0)))
               (= (+ |tmp'| (- havoc)) 0) (= (+ |v'| (- phi_v)) 0)
               (= (+ term_to_project_onto0_integralized (- (+ |v'| (- v)))) 0)
               (= (+ term_to_project_onto_integralized (- (+ |tmp'| (- tmp)))) 0)))
(check-sat)